7
2147483647 76 17 56 65 6 71 
76 2147483647 72 36 29 6 13 
17 72 2147483647 4 75 46 43 
56 36 4 2147483647 88 29 42 
65 29 75 88 2147483647 82 24 
6 6 46 29 82 2147483647 55 
71 13 43 42 24 55 2147483647 
